;; sequence(s): A326781
;; terms: 0 4 16 20 32 36 48 52 64 68 80 84 96 100 112 116 256 260 272 276
;; small program: (((((x div 2) + x) - (x mod loop(x * x, 2, 2))) * 2) + x) * (2 + 2)
;; fast program: (((((x div 2) + x) - (x mod (2 * (2 * (2 + 2))))) * 2) + x) * (2 + 2)
(set-logic UFNIA)
(declare-fun f0 (Int) Int)
(declare-fun g0 () Int)
(declare-fun h0 () Int)
(declare-fun u0 (Int Int) Int)
(declare-fun v0 () Int)
(declare-fun small (Int) Int)
(declare-fun fast (Int) Int)
(assert (forall ((x Int)) (= (f0 x) (* x x))))
(assert (= g0 2))
(assert (= h0 2))
(assert (forall ((x Int) (y Int)) (= (u0 x y) (ite (<= x 0) y (f0 (u0 (- x 1) y))))))
(assert (= v0 (u0 g0 h0)))
(assert (forall ((x Int)) (= (small x) (* (+ (* (- (+ (div x 2) x) (mod x v0)) 2) x) (+ 2 2)))))
(assert (forall ((x Int)) (= (fast x) (* (+ (* (- (+ (div x 2) x) (mod x (* 2 (* 2 (+ 2 2))))) 2) x) (+ 2 2)))))
(assert (exists ((c Int)) (and (>= c 0) (not (= (small c) (fast c))))))
(check-sat)
